120 3570 
1 17 1
1 110 1
1 69 1
1 20 1
1 72 1
1 94 1
1 10 1
1 114 1
1 16 1
1 101 1
1 70 1
1 24 1
1 112 1
1 59 1
1 18 1
1 68 1
1 33 1
1 48 1
1 118 1
1 89 1
1 111 1
1 49 1
1 90 1
1 103 1
1 37 1
1 30 1
1 12 1
1 4 1
1 76 1
1 105 1
1 85 1
1 74 1
1 62 1
1 67 1
1 52 1
1 96 1
1 100 1
1 2 1
1 115 1
1 27 1
1 61 1
1 84 1
1 14 1
1 81 1
1 40 1
1 109 1
1 120 1
1 95 1
1 75 1
1 53 1
1 15 1
1 104 1
1 99 1
1 44 1
1 60 1
1 19 1
1 46 1
1 34 1
1 7 1
1 23 1
1 66 1
2 77 1
2 69 1
2 95 1
2 74 1
2 105 1
2 110 1
2 5 1
2 26 1
2 19 1
2 80 1
2 9 1
2 22 1
2 55 1
2 49 1
2 81 1
2 14 1
2 90 1
2 98 1
2 109 1
2 104 1
2 106 1
2 113 1
2 34 1
2 112 1
2 118 1
2 83 1
2 57 1
2 89 1
2 93 1
2 96 1
2 29 1
2 33 1
2 63 1
2 48 1
2 75 1
2 53 1
2 43 1
2 31 1
2 36 1
2 23 1
2 46 1
2 85 1
2 18 1
2 25 1
2 114 1
2 45 1
2 8 1
2 68 1
2 27 1
2 32 1
2 54 1
2 92 1
2 10 1
2 65 1
2 28 1
2 71 1
2 56 1
2 39 1
2 99 1
2 103 1
2 76 1
2 64 1
3 108 1
3 98 1
3 92 1
3 25 1
3 106 1
3 107 1
3 88 1
3 75 1
3 11 1
3 105 1
3 95 1
3 19 1
3 63 1
3 43 1
3 29 1
3 85 1
3 52 1
3 80 1
3 117 1
3 112 1
3 30 1
3 59 1
3 76 1
3 69 1
3 27 1
3 23 1
3 47 1
3 101 1
3 96 1
3 35 1
3 84 1
3 120 1
3 60 1
3 62 1
3 15 1
3 77 1
3 68 1
3 36 1
3 81 1
3 100 1
3 10 1
3 38 1
3 87 1
3 6 1
3 102 1
3 49 1
3 79 1
3 118 1
3 14 1
3 73 1
3 17 1
3 4 1
3 48 1
3 114 1
3 99 1
3 37 1
3 110 1
3 8 1
3 111 1
3 74 1
3 41 1
3 65 1
3 46 1
4 19 1
4 110 1
4 6 1
4 66 1
4 68 1
4 64 1
4 104 1
4 88 1
4 57 1
4 75 1
4 108 1
4 77 1
4 102 1
4 109 1
4 31 1
4 40 1
4 51 1
4 22 1
4 95 1
4 38 1
4 118 1
4 107 1
4 48 1
4 13 1
4 50 1
4 30 1
4 71 1
4 17 1
4 113 1
4 5 1
4 70 1
4 18 1
4 114 1
4 36 1
4 54 1
4 83 1
4 99 1
4 74 1
4 15 1
4 53 1
4 65 1
4 41 1
4 69 1
4 85 1
4 105 1
4 79 1
4 87 1
4 49 1
4 96 1
4 76 1
4 35 1
4 93 1
4 55 1
4 27 1
4 98 1
4 117 1
5 26 1
5 79 1
5 100 1
5 24 1
5 56 1
5 78 1
5 49 1
5 23 1
5 51 1
5 28 1
5 12 1
5 101 1
5 73 1
5 19 1
5 81 1
5 105 1
5 52 1
5 42 1
5 71 1
5 88 1
5 43 1
5 112 1
5 90 1
5 61 1
5 118 1
5 62 1
5 66 1
5 68 1
5 30 1
5 69 1
5 98 1
5 70 1
5 108 1
5 15 1
5 107 1
5 119 1
5 17 1
5 99 1
5 44 1
5 91 1
5 85 1
5 14 1
5 20 1
5 41 1
5 33 1
5 11 1
5 75 1
5 97 1
5 120 1
5 10 1
5 25 1
5 21 1
6 9 1
6 107 1
6 82 1
6 55 1
6 23 1
6 59 1
6 98 1
6 119 1
6 58 1
6 101 1
6 61 1
6 102 1
6 45 1
6 77 1
6 65 1
6 99 1
6 19 1
6 27 1
6 39 1
6 116 1
6 89 1
6 40 1
6 29 1
6 49 1
6 53 1
6 86 1
6 92 1
6 21 1
6 72 1
6 97 1
6 13 1
6 69 1
6 109 1
6 78 1
6 117 1
6 10 1
6 18 1
6 36 1
6 35 1
6 108 1
6 25 1
6 106 1
6 118 1
6 64 1
6 63 1
6 12 1
6 56 1
6 113 1
6 90 1
6 93 1
6 83 1
6 47 1
6 17 1
6 42 1
6 110 1
6 111 1
6 115 1
6 28 1
6 33 1
6 70 1
6 14 1
7 74 1
7 110 1
7 61 1
7 89 1
7 53 1
7 26 1
7 118 1
7 70 1
7 64 1
7 71 1
7 78 1
7 90 1
7 27 1
7 95 1
7 19 1
7 67 1
7 96 1
7 37 1
7 102 1
7 86 1
7 79 1
7 22 1
7 36 1
7 62 1
7 35 1
7 101 1
7 68 1
7 45 1
7 75 1
7 76 1
7 25 1
7 8 1
7 69 1
7 107 1
7 16 1
7 54 1
7 43 1
7 103 1
7 81 1
7 63 1
7 57 1
7 73 1
7 114 1
7 98 1
7 93 1
7 97 1
7 32 1
7 51 1
7 30 1
7 100 1
7 29 1
7 46 1
7 13 1
7 50 1
7 115 1
7 84 1
7 80 1
8 88 1
8 98 1
8 19 1
8 26 1
8 84 1
8 102 1
8 115 1
8 35 1
8 70 1
8 61 1
8 47 1
8 22 1
8 66 1
8 91 1
8 46 1
8 39 1
8 40 1
8 45 1
8 68 1
8 67 1
8 113 1
8 16 1
8 21 1
8 93 1
8 38 1
8 106 1
8 87 1
8 30 1
8 78 1
8 95 1
8 96 1
8 120 1
8 11 1
8 71 1
8 118 1
8 48 1
8 28 1
8 105 1
8 43 1
8 117 1
8 50 1
8 104 1
8 81 1
8 20 1
8 55 1
8 103 1
8 86 1
8 58 1
8 107 1
8 119 1
8 34 1
8 79 1
8 92 1
8 23 1
8 49 1
8 14 1
8 89 1
8 44 1
8 63 1
9 110 1
9 74 1
9 90 1
9 31 1
9 67 1
9 75 1
9 107 1
9 92 1
9 32 1
9 98 1
9 19 1
9 104 1
9 54 1
9 36 1
9 52 1
9 10 1
9 63 1
9 95 1
9 58 1
9 70 1
9 120 1
9 24 1
9 77 1
9 119 1
9 100 1
9 78 1
9 85 1
9 25 1
9 23 1
9 97 1
9 37 1
9 34 1
9 101 1
9 113 1
9 117 1
9 38 1
9 55 1
9 33 1
9 64 1
9 48 1
9 84 1
9 79 1
9 65 1
9 86 1
9 88 1
9 99 1
9 46 1
9 114 1
10 89 1
10 99 1
10 75 1
10 37 1
10 114 1
10 90 1
10 66 1
10 25 1
10 79 1
10 31 1
10 116 1
10 19 1
10 105 1
10 49 1
10 12 1
10 18 1
10 62 1
10 53 1
10 112 1
10 50 1
10 40 1
10 20 1
10 83 1
10 63 1
10 97 1
10 51 1
10 41 1
10 115 1
10 48 1
10 60 1
10 82 1
10 15 1
10 29 1
10 64 1
10 32 1
10 27 1
10 96 1
10 103 1
10 44 1
10 43 1
10 119 1
10 94 1
10 67 1
10 57 1
10 61 1
10 86 1
10 11 1
10 58 1
10 35 1
10 108 1
10 36 1
10 24 1
10 42 1
10 77 1
10 107 1
10 16 1
10 81 1
11 71 1
11 79 1
11 37 1
11 120 1
11 119 1
11 59 1
11 51 1
11 20 1
11 28 1
11 46 1
11 40 1
11 66 1
11 95 1
11 34 1
11 47 1
11 68 1
11 39 1
11 93 1
11 99 1
11 75 1
11 84 1
11 115 1
11 62 1
11 21 1
11 26 1
11 50 1
11 41 1
11 104 1
11 52 1
11 23 1
11 109 1
11 35 1
11 53 1
11 112 1
11 90 1
11 49 1
11 118 1
11 74 1
11 61 1
11 113 1
11 100 1
11 86 1
11 88 1
11 73 1
11 38 1
11 96 1
11 44 1
11 19 1
11 82 1
11 63 1
11 103 1
11 12 1
12 16 1
12 49 1
12 101 1
12 31 1
12 61 1
12 77 1
12 70 1
12 47 1
12 29 1
12 115 1
12 97 1
12 62 1
12 107 1
12 71 1
12 116 1
12 85 1
12 66 1
12 118 1
12 108 1
12 75 1
12 69 1
12 36 1
12 28 1
12 25 1
12 57 1
12 55 1
12 79 1
12 37 1
12 80 1
12 89 1
12 33 1
12 41 1
12 38 1
12 17 1
12 52 1
12 56 1
12 104 1
12 78 1
12 50 1
12 46 1
12 83 1
12 54 1
12 58 1
12 99 1
12 18 1
12 27 1
12 26 1
12 93 1
12 111 1
12 72 1
12 65 1
12 100 1
12 24 1
12 22 1
12 13 1
12 90 1
12 74 1
12 113 1
12 105 1
13 98 1
13 66 1
13 94 1
13 83 1
13 95 1
13 24 1
13 54 1
13 67 1
13 48 1
13 120 1
13 53 1
13 64 1
13 52 1
13 63 1
13 103 1
13 23 1
13 61 1
13 29 1
13 72 1
13 78 1
13 99 1
13 32 1
13 16 1
13 35 1
13 38 1
13 30 1
13 86 1
13 106 1
13 37 1
13 19 1
13 84 1
13 74 1
13 14 1
13 36 1
13 97 1
13 27 1
13 100 1
13 104 1
13 65 1
13 25 1
13 112 1
13 80 1
13 90 1
13 93 1
13 57 1
13 109 1
13 56 1
13 62 1
13 28 1
13 69 1
13 26 1
13 113 1
13 77 1
13 59 1
14 85 1
14 40 1
14 41 1
14 53 1
14 32 1
14 47 1
14 51 1
14 76 1
14 22 1
14 106 1
14 83 1
14 43 1
14 33 1
14 89 1
14 20 1
14 100 1
14 104 1
14 69 1
14 44 1
14 16 1
14 93 1
14 105 1
14 98 1
14 30 1
14 110 1
14 88 1
14 65 1
14 52 1
14 97 1
14 120 1
14 31 1
14 99 1
14 36 1
14 80 1
14 37 1
14 113 1
14 46 1
14 79 1
14 59 1
14 86 1
14 55 1
14 94 1
14 67 1
14 57 1
14 26 1
14 116 1
14 24 1
14 70 1
14 108 1
14 117 1
14 103 1
14 50 1
14 72 1
14 63 1
14 115 1
14 78 1
14 82 1
14 66 1
14 54 1
14 84 1
14 114 1
15 111 1
15 89 1
15 22 1
15 38 1
15 16 1
15 100 1
15 41 1
15 31 1
15 117 1
15 39 1
15 113 1
15 60 1
15 59 1
15 33 1
15 52 1
15 116 1
15 105 1
15 36 1
15 81 1
15 112 1
15 83 1
15 68 1
15 75 1
15 28 1
15 47 1
15 80 1
15 103 1
15 54 1
15 20 1
15 63 1
15 108 1
15 29 1
15 48 1
15 58 1
15 40 1
15 24 1
15 91 1
15 74 1
15 69 1
15 19 1
15 88 1
15 96 1
15 86 1
15 82 1
15 99 1
15 49 1
15 114 1
15 46 1
15 62 1
15 45 1
15 72 1
16 31 1
16 65 1
16 27 1
16 22 1
16 20 1
16 81 1
16 80 1
16 54 1
16 38 1
16 55 1
16 40 1
16 75 1
16 47 1
16 97 1
16 110 1
16 49 1
16 76 1
16 67 1
16 28 1
16 64 1
16 56 1
16 104 1
16 83 1
16 68 1
16 78 1
16 84 1
16 63 1
16 66 1
16 99 1
16 58 1
16 108 1
16 95 1
16 71 1
16 114 1
16 53 1
16 116 1
16 106 1
16 93 1
16 33 1
16 24 1
16 45 1
16 61 1
16 86 1
16 118 1
16 117 1
16 119 1
16 113 1
16 60 1
16 21 1
16 26 1
16 69 1
16 70 1
16 98 1
16 37 1
16 39 1
16 19 1
16 111 1
16 73 1
16 96 1
16 112 1
16 35 1
16 87 1
17 67 1
17 100 1
17 20 1
17 107 1
17 101 1
17 77 1
17 118 1
17 70 1
17 59 1
17 96 1
17 65 1
17 87 1
17 35 1
17 93 1
17 111 1
17 32 1
17 90 1
17 46 1
17 113 1
17 79 1
17 119 1
17 71 1
17 60 1
17 39 1
17 48 1
17 84 1
17 50 1
17 69 1
17 106 1
17 51 1
17 120 1
17 37 1
17 80 1
17 85 1
17 95 1
17 97 1
17 116 1
17 99 1
17 117 1
17 63 1
17 38 1
17 108 1
17 26 1
17 73 1
17 36 1
17 23 1
17 82 1
17 30 1
17 88 1
17 115 1
17 53 1
17 19 1
17 92 1
17 64 1
17 68 1
18 31 1
18 88 1
18 35 1
18 47 1
18 43 1
18 32 1
18 65 1
18 120 1
18 109 1
18 45 1
18 106 1
18 98 1
18 64 1
18 76 1
18 117 1
18 70 1
18 73 1
18 39 1
18 113 1
18 95 1
18 99 1
18 22 1
18 41 1
18 46 1
18 23 1
18 89 1
18 63 1
18 55 1
18 51 1
18 116 1
18 61 1
18 20 1
18 111 1
18 40 1
18 24 1
18 53 1
18 74 1
18 104 1
18 36 1
18 100 1
18 71 1
18 57 1
18 81 1
18 33 1
18 62 1
18 80 1
18 82 1
18 42 1
18 94 1
18 108 1
18 112 1
19 76 1
19 99 1
19 31 1
19 59 1
19 62 1
19 64 1
19 43 1
19 60 1
19 47 1
19 80 1
19 46 1
19 77 1
19 35 1
19 118 1
19 79 1
19 86 1
19 109 1
19 83 1
19 95 1
19 63 1
19 103 1
19 84 1
19 21 1
19 68 1
19 34 1
19 82 1
19 117 1
19 56 1
19 27 1
19 29 1
19 25 1
19 94 1
19 41 1
19 50 1
19 66 1
19 55 1
19 32 1
19 61 1
19 24 1
19 20 1
19 44 1
19 78 1
19 30 1
19 39 1
19 113 1
19 87 1
19 97 1
19 74 1
20 62 1
20 89 1
20 22 1
20 28 1
20 75 1
20 119 1
20 107 1
20 72 1
20 105 1
20 58 1
20 82 1
20 111 1
20 84 1
20 31 1
20 120 1
20 52 1
20 114 1
20 108 1
20 42 1
20 109 1
20 61 1
20 65 1
20 50 1
20 29 1
20 53 1
20 32 1
20 113 1
20 77 1
20 67 1
20 71 1
20 79 1
20 118 1
20 49 1
20 44 1
20 21 1
20 98 1
20 64 1
20 56 1
20 90 1
20 25 1
20 23 1
20 43 1
20 26 1
20 51 1
20 97 1
20 63 1
20 86 1
21 76 1
21 71 1
21 39 1
21 69 1
21 94 1
21 108 1
21 40 1
21 72 1
21 110 1
21 22 1
21 43 1
21 114 1
21 107 1
21 35 1
21 37 1
21 63 1
21 29 1
21 27 1
21 75 1
21 97 1
21 67 1
21 24 1
21 106 1
21 77 1
21 73 1
21 99 1
21 53 1
21 41 1
21 96 1
21 74 1
21 36 1
21 70 1
21 103 1
21 48 1
21 80 1
21 117 1
21 47 1
21 45 1
21 33 1
21 65 1
21 83 1
21 32 1
21 120 1
22 38 1
22 23 1
22 89 1
22 51 1
22 114 1
22 44 1
22 36 1
22 53 1
22 116 1
22 104 1
22 82 1
22 75 1
22 56 1
22 100 1
22 91 1
22 29 1
22 110 1
22 74 1
22 39 1
22 52 1
22 120 1
22 68 1
22 34 1
22 109 1
22 62 1
22 96 1
22 72 1
22 78 1
22 113 1
22 119 1
22 83 1
22 108 1
22 26 1
22 87 1
22 58 1
22 95 1
22 46 1
22 112 1
22 103 1
22 79 1
22 70 1
22 55 1
22 97 1
22 43 1
22 86 1
22 117 1
22 27 1
22 99 1
22 90 1
22 24 1
22 41 1
22 54 1
22 94 1
22 76 1
22 71 1
22 84 1
22 92 1
22 31 1
23 28 1
23 88 1
23 43 1
23 53 1
23 79 1
23 93 1
23 89 1
23 34 1
23 87 1
23 99 1
23 42 1
23 102 1
23 80 1
23 74 1
23 35 1
23 29 1
23 57 1
23 51 1
23 25 1
23 37 1
23 45 1
23 68 1
23 115 1
23 47 1
23 108 1
23 40 1
23 65 1
23 66 1
23 85 1
23 86 1
23 106 1
23 73 1
23 77 1
23 63 1
23 114 1
23 36 1
23 56 1
23 81 1
23 101 1
23 32 1
23 49 1
23 95 1
23 58 1
23 94 1
23 120 1
23 91 1
24 105 1
24 91 1
24 46 1
24 47 1
24 86 1
24 60 1
24 107 1
24 76 1
24 61 1
24 68 1
24 110 1
24 119 1
24 106 1
24 57 1
24 93 1
24 64 1
24 80 1
24 88 1
24 28 1
24 103 1
24 55 1
24 115 1
24 77 1
24 100 1
24 85 1
24 83 1
24 65 1
24 39 1
24 59 1
24 26 1
24 90 1
24 72 1
24 70 1
24 99 1
24 38 1
24 52 1
24 94 1
24 101 1
24 120 1
24 79 1
24 87 1
24 82 1
24 81 1
24 118 1
24 44 1
24 108 1
24 78 1
24 53 1
25 94 1
25 77 1
25 63 1
25 56 1
25 72 1
25 97 1
25 119 1
25 106 1
25 65 1
25 111 1
25 89 1
25 39 1
25 52 1
25 47 1
25 31 1
25 80 1
25 35 1
25 28 1
25 29 1
25 102 1
25 70 1
25 104 1
25 34 1
25 108 1
25 48 1
25 55 1
25 44 1
25 117 1
25 96 1
25 73 1
25 79 1
25 51 1
25 71 1
25 116 1
25 60 1
25 58 1
25 91 1
25 37 1
25 86 1
25 88 1
25 50 1
25 33 1
25 53 1
25 67 1
25 120 1
25 90 1
25 109 1
25 64 1
25 110 1
25 30 1
26 110 1
26 79 1
26 61 1
26 91 1
26 54 1
26 27 1
26 96 1
26 72 1
26 35 1
26 114 1
26 100 1
26 65 1
26 80 1
26 34 1
26 83 1
26 45 1
26 77 1
26 78 1
26 73 1
26 36 1
26 90 1
26 116 1
26 32 1
26 66 1
26 119 1
26 98 1
26 64 1
26 103 1
26 81 1
26 89 1
26 118 1
26 28 1
26 104 1
26 38 1
26 74 1
26 43 1
26 106 1
26 92 1
26 47 1
26 113 1
26 59 1
26 94 1
26 111 1
26 55 1
26 97 1
26 85 1
26 76 1
27 79 1
27 98 1
27 84 1
27 76 1
27 115 1
27 50 1
27 65 1
27 88 1
27 61 1
27 29 1
27 71 1
27 63 1
27 49 1
27 32 1
27 119 1
27 108 1
27 28 1
27 102 1
27 109 1
27 31 1
27 93 1
27 112 1
27 62 1
27 35 1
27 81 1
27 96 1
27 118 1
27 48 1
27 64 1
27 46 1
27 105 1
27 95 1
27 94 1
27 60 1
27 45 1
27 42 1
27 38 1
27 66 1
27 47 1
27 70 1
27 120 1
27 89 1
27 107 1
28 33 1
28 117 1
28 68 1
28 35 1
28 34 1
28 74 1
28 49 1
28 46 1
28 99 1
28 107 1
28 61 1
28 80 1
28 60 1
28 56 1
28 114 1
28 37 1
28 31 1
28 93 1
28 96 1
28 45 1
28 84 1
28 81 1
28 51 1
28 30 1
28 103 1
28 58 1
28 109 1
28 41 1
28 44 1
28 52 1
28 88 1
28 116 1
28 112 1
28 69 1
28 90 1
28 40 1
28 53 1
28 94 1
28 102 1
28 77 1
28 50 1
28 92 1
28 115 1
28 106 1
28 62 1
28 108 1
29 90 1
29 73 1
29 52 1
29 103 1
29 120 1
29 97 1
29 40 1
29 72 1
29 88 1
29 84 1
29 92 1
29 98 1
29 109 1
29 114 1
29 43 1
29 53 1
29 75 1
29 50 1
29 119 1
29 96 1
29 55 1
29 105 1
29 94 1
29 60 1
29 111 1
29 116 1
29 58 1
29 32 1
29 108 1
29 65 1
29 85 1
29 115 1
29 67 1
29 33 1
29 69 1
29 36 1
29 63 1
29 62 1
29 70 1
29 51 1
29 87 1
29 89 1
29 101 1
29 76 1
29 47 1
29 56 1
30 101 1
30 91 1
30 105 1
30 55 1
30 50 1
30 83 1
30 86 1
30 103 1
30 40 1
30 37 1
30 92 1
30 74 1
30 48 1
30 31 1
30 75 1
30 81 1
30 78 1
30 35 1
30 107 1
30 36 1
30 41 1
30 87 1
30 95 1
30 89 1
30 108 1
30 98 1
30 104 1
30 67 1
30 42 1
30 116 1
30 114 1
30 73 1
30 102 1
30 80 1
30 82 1
30 93 1
30 77 1
30 57 1
30 45 1
30 119 1
30 72 1
30 56 1
30 71 1
30 113 1
31 97 1
31 53 1
31 92 1
31 34 1
31 85 1
31 37 1
31 59 1
31 42 1
31 35 1
31 68 1
31 78 1
31 112 1
31 88 1
31 33 1
31 44 1
31 40 1
31 46 1
31 120 1
31 32 1
31 102 1
31 45 1
31 52 1
31 72 1
31 64 1
31 75 1
31 41 1
31 36 1
31 116 1
31 62 1
31 109 1
31 47 1
31 61 1
31 86 1
31 54 1
31 51 1
31 82 1
31 50 1
31 108 1
31 71 1
31 115 1
31 79 1
31 94 1
31 80 1
31 118 1
31 106 1
32 55 1
32 87 1
32 80 1
32 66 1
32 103 1
32 46 1
32 105 1
32 88 1
32 53 1
32 44 1
32 54 1
32 56 1
32 93 1
32 34 1
32 57 1
32 72 1
32 108 1
32 52 1
32 63 1
32 84 1
32 35 1
32 90 1
32 102 1
32 37 1
32 64 1
32 119 1
32 48 1
32 62 1
32 116 1
32 86 1
32 112 1
32 117 1
32 76 1
32 69 1
32 83 1
33 66 1
33 62 1
33 93 1
33 104 1
33 48 1
33 44 1
33 75 1
33 36 1
33 58 1
33 76 1
33 52 1
33 40 1
33 109 1
33 73 1
33 103 1
33 60 1
33 56 1
33 35 1
33 59 1
33 53 1
33 86 1
33 45 1
33 114 1
33 70 1
33 119 1
33 100 1
33 74 1
33 67 1
33 115 1
33 116 1
33 49 1
33 105 1
33 71 1
33 89 1
33 43 1
33 34 1
33 51 1
33 90 1
33 42 1
33 91 1
33 50 1
33 113 1
33 72 1
34 119 1
34 99 1
34 103 1
34 46 1
34 64 1
34 63 1
34 40 1
34 101 1
34 65 1
34 42 1
34 81 1
34 83 1
34 58 1
34 112 1
34 115 1
34 118 1
34 51 1
34 56 1
34 93 1
34 113 1
34 55 1
34 69 1
34 53 1
34 97 1
34 107 1
34 75 1
34 89 1
34 71 1
34 41 1
34 85 1
34 36 1
34 84 1
34 48 1
34 102 1
34 59 1
34 87 1
34 52 1
34 37 1
34 78 1
34 80 1
34 60 1
34 108 1
34 61 1
35 96 1
35 54 1
35 97 1
35 48 1
35 39 1
35 56 1
35 50 1
35 68 1
35 112 1
35 43 1
35 51 1
35 104 1
35 45 1
35 55 1
35 37 1
35 78 1
35 62 1
35 57 1
35 66 1
35 88 1
35 40 1
35 94 1
35 65 1
35 119 1
35 95 1
35 64 1
35 111 1
35 81 1
35 113 1
35 53 1
35 110 1
35 76 1
35 60 1
35 89 1
35 71 1
35 105 1
35 114 1
35 41 1
35 102 1
35 92 1
35 42 1
35 74 1
35 79 1
35 108 1
35 107 1
35 98 1
36 117 1
36 102 1
36 49 1
36 42 1
36 91 1
36 88 1
36 78 1
36 66 1
36 77 1
36 71 1
36 86 1
36 55 1
36 100 1
36 118 1
36 57 1
36 90 1
36 109 1
36 87 1
36 45 1
36 68 1
36 39 1
36 80 1
36 62 1
36 43 1
36 59 1
36 93 1
36 84 1
36 111 1
36 73 1
36 48 1
36 53 1
36 113 1
36 79 1
36 69 1
36 106 1
36 52 1
36 58 1
36 110 1
36 40 1
36 51 1
36 99 1
37 51 1
37 62 1
37 44 1
37 100 1
37 95 1
37 105 1
37 74 1
37 57 1
37 113 1
37 55 1
37 84 1
37 54 1
37 70 1
37 78 1
37 46 1
37 115 1
37 40 1
37 47 1
37 99 1
37 38 1
37 59 1
37 118 1
37 91 1
37 71 1
37 87 1
37 94 1
37 93 1
37 67 1
37 116 1
37 75 1
37 111 1
37 60 1
37 58 1
37 65 1
37 61 1
37 76 1
37 53 1
37 107 1
38 97 1
38 77 1
38 88 1
38 56 1
38 89 1
38 78 1
38 90 1
38 54 1
38 118 1
38 80 1
38 50 1
38 55 1
38 96 1
38 68 1
38 92 1
38 76 1
38 109 1
38 93 1
38 51 1
38 91 1
38 44 1
38 84 1
38 106 1
38 87 1
38 117 1
38 72 1
38 73 1
38 82 1
38 45 1
38 95 1
38 74 1
38 114 1
38 120 1
38 66 1
38 119 1
38 102 1
38 53 1
38 39 1
38 94 1
38 86 1
38 52 1
38 103 1
38 104 1
38 47 1
38 99 1
38 108 1
38 48 1
38 79 1
38 110 1
39 112 1
39 49 1
39 75 1
39 66 1
39 57 1
39 108 1
39 103 1
39 89 1
39 59 1
39 90 1
39 70 1
39 100 1
39 54 1
39 44 1
39 50 1
39 40 1
39 46 1
39 67 1
39 58 1
39 120 1
39 85 1
39 86 1
39 43 1
39 65 1
39 72 1
39 95 1
39 97 1
39 79 1
39 94 1
39 80 1
39 91 1
39 60 1
39 78 1
39 111 1
39 71 1
39 76 1
39 102 1
39 48 1
39 93 1
39 99 1
39 106 1
39 83 1
40 84 1
40 102 1
40 80 1
40 49 1
40 119 1
40 55 1
40 71 1
40 56 1
40 104 1
40 69 1
40 58 1
40 48 1
40 76 1
40 86 1
40 114 1
40 67 1
40 78 1
40 42 1
40 115 1
40 46 1
40 60 1
40 117 1
40 89 1
40 66 1
40 63 1
40 68 1
40 65 1
40 81 1
40 59 1
40 112 1
40 70 1
40 74 1
40 57 1
40 79 1
40 61 1
40 50 1
40 95 1
40 106 1
40 45 1
41 66 1
41 105 1
41 71 1
41 110 1
41 117 1
41 86 1
41 58 1
41 64 1
41 51 1
41 70 1
41 78 1
41 77 1
41 56 1
41 120 1
41 85 1
41 60 1
41 62 1
41 111 1
41 98 1
41 50 1
41 42 1
41 76 1
41 48 1
41 69 1
41 74 1
41 45 1
41 102 1
41 84 1
41 89 1
42 84 1
42 82 1
42 60 1
42 86 1
42 56 1
42 107 1
42 111 1
42 63 1
42 53 1
42 52 1
42 64 1
42 59 1
42 72 1
42 115 1
42 73 1
42 97 1
42 106 1
42 45 1
42 99 1
42 98 1
42 49 1
42 80 1
42 65 1
42 55 1
42 47 1
42 116 1
42 119 1
42 108 1
42 70 1
42 105 1
42 103 1
42 57 1
42 50 1
42 75 1
42 48 1
42 89 1
42 102 1
42 79 1
42 118 1
42 120 1
42 66 1
42 68 1
42 83 1
42 101 1
42 94 1
42 95 1
42 62 1
42 85 1
42 100 1
42 114 1
42 67 1
42 91 1
43 58 1
43 55 1
43 81 1
43 66 1
43 79 1
43 77 1
43 75 1
43 60 1
43 48 1
43 107 1
43 111 1
43 91 1
43 99 1
43 95 1
43 54 1
43 45 1
43 96 1
43 105 1
43 73 1
43 67 1
43 53 1
43 109 1
43 113 1
43 71 1
43 104 1
43 80 1
43 68 1
43 101 1
43 94 1
43 62 1
43 108 1
43 46 1
43 88 1
43 83 1
43 93 1
43 47 1
43 85 1
44 119 1
44 97 1
44 72 1
44 106 1
44 105 1
44 94 1
44 115 1
44 58 1
44 67 1
44 74 1
44 52 1
44 95 1
44 81 1
44 59 1
44 57 1
44 109 1
44 91 1
44 51 1
44 86 1
44 98 1
44 64 1
44 93 1
44 85 1
44 110 1
44 75 1
44 82 1
44 63 1
44 90 1
44 96 1
44 62 1
44 112 1
44 100 1
45 85 1
45 72 1
45 70 1
45 74 1
45 76 1
45 53 1
45 107 1
45 62 1
45 97 1
45 104 1
45 71 1
45 56 1
45 52 1
45 91 1
45 63 1
45 86 1
45 78 1
45 65 1
45 118 1
45 105 1
45 64 1
45 94 1
45 112 1
45 57 1
45 119 1
45 84 1
45 61 1
45 96 1
45 89 1
45 87 1
45 83 1
45 60 1
45 90 1
45 106 1
45 101 1
45 102 1
45 50 1
45 69 1
46 64 1
46 69 1
46 60 1
46 115 1
46 118 1
46 112 1
46 74 1
46 84 1
46 100 1
46 76 1
46 78 1
46 90 1
46 108 1
46 86 1
46 77 1
46 111 1
46 83 1
46 104 1
46 71 1
46 63 1
46 94 1
46 97 1
46 117 1
46 66 1
46 91 1
46 85 1
46 65 1
46 119 1
46 80 1
46 99 1
46 101 1
46 106 1
46 102 1
46 68 1
47 118 1
47 64 1
47 99 1
47 59 1
47 79 1
47 103 1
47 76 1
47 114 1
47 53 1
47 73 1
47 84 1
47 117 1
47 77 1
47 48 1
47 102 1
47 66 1
47 68 1
47 115 1
47 93 1
47 109 1
47 86 1
47 108 1
47 71 1
47 110 1
47 104 1
47 58 1
47 75 1
47 67 1
47 95 1
47 96 1
47 49 1
47 100 1
47 120 1
47 105 1
48 67 1
48 95 1
48 108 1
48 106 1
48 101 1
48 86 1
48 80 1
48 68 1
48 82 1
48 94 1
48 119 1
48 116 1
48 66 1
48 85 1
48 57 1
48 81 1
48 102 1
48 91 1
48 73 1
48 69 1
48 90 1
48 54 1
48 53 1
48 49 1
48 104 1
48 71 1
48 92 1
49 81 1
49 73 1
49 118 1
49 80 1
49 109 1
49 116 1
49 97 1
49 101 1
49 68 1
49 77 1
49 62 1
49 98 1
49 59 1
49 50 1
49 115 1
49 86 1
49 61 1
49 106 1
49 90 1
49 105 1
49 79 1
49 71 1
49 111 1
49 85 1
49 64 1
49 117 1
49 54 1
49 108 1
49 57 1
49 53 1
49 114 1
49 51 1
50 66 1
50 94 1
50 63 1
50 80 1
50 85 1
50 79 1
50 119 1
50 103 1
50 93 1
50 104 1
50 78 1
50 73 1
50 95 1
50 64 1
50 60 1
50 90 1
50 106 1
50 51 1
50 114 1
50 108 1
50 113 1
50 72 1
50 110 1
50 62 1
50 100 1
50 105 1
50 109 1
50 76 1
50 81 1
50 84 1
50 111 1
50 87 1
50 53 1
50 65 1
50 98 1
50 118 1
50 52 1
50 91 1
50 99 1
51 103 1
51 58 1
51 78 1
51 105 1
51 59 1
51 104 1
51 90 1
51 55 1
51 62 1
51 109 1
51 53 1
51 69 1
51 88 1
51 80 1
51 120 1
51 98 1
51 110 1
51 93 1
51 66 1
51 115 1
51 87 1
51 74 1
51 91 1
51 54 1
51 96 1
51 94 1
51 95 1
51 113 1
51 83 1
52 104 1
52 77 1
52 63 1
52 100 1
52 54 1
52 114 1
52 112 1
52 79 1
52 89 1
52 110 1
52 55 1
52 57 1
52 97 1
52 106 1
52 98 1
52 116 1
52 59 1
52 86 1
52 120 1
52 108 1
52 84 1
52 102 1
52 119 1
52 62 1
52 87 1
52 103 1
52 99 1
52 72 1
52 60 1
52 78 1
52 96 1
52 68 1
52 91 1
52 94 1
52 53 1
52 80 1
53 60 1
53 96 1
53 98 1
53 89 1
53 74 1
53 99 1
53 54 1
53 68 1
53 116 1
53 106 1
53 87 1
53 97 1
53 80 1
53 71 1
53 92 1
53 95 1
53 62 1
53 118 1
53 77 1
53 70 1
53 105 1
53 57 1
53 104 1
53 107 1
53 84 1
53 76 1
53 64 1
53 112 1
53 61 1
53 72 1
53 83 1
53 59 1
53 67 1
54 90 1
54 63 1
54 116 1
54 111 1
54 57 1
54 72 1
54 102 1
54 65 1
54 68 1
54 97 1
54 64 1
54 93 1
54 95 1
54 99 1
54 74 1
54 84 1
54 78 1
54 83 1
54 87 1
54 77 1
54 66 1
54 101 1
54 69 1
54 104 1
54 100 1
54 115 1
54 88 1
54 105 1
54 79 1
54 112 1
54 70 1
55 59 1
55 119 1
55 72 1
55 114 1
55 91 1
55 71 1
55 90 1
55 116 1
55 108 1
55 73 1
55 96 1
55 87 1
55 112 1
55 61 1
55 67 1
55 100 1
55 104 1
55 66 1
55 95 1
55 107 1
55 113 1
55 84 1
55 83 1
55 69 1
55 70 1
55 89 1
55 103 1
55 78 1
55 106 1
55 94 1
56 95 1
56 70 1
56 116 1
56 58 1
56 88 1
56 79 1
56 106 1
56 78 1
56 114 1
56 104 1
56 107 1
56 64 1
56 101 1
56 62 1
56 85 1
56 71 1
56 115 1
56 93 1
56 92 1
56 105 1
56 87 1
56 110 1
56 102 1
56 57 1
56 73 1
56 94 1
56 84 1
56 120 1
56 69 1
56 118 1
56 66 1
56 97 1
56 90 1
57 111 1
57 68 1
57 92 1
57 114 1
57 117 1
57 84 1
57 67 1
57 85 1
57 66 1
57 87 1
57 100 1
57 86 1
57 63 1
57 69 1
57 71 1
57 81 1
57 110 1
57 78 1
57 108 1
57 103 1
57 99 1
57 120 1
57 107 1
57 91 1
57 79 1
57 95 1
57 73 1
57 76 1
57 64 1
57 77 1
57 115 1
58 90 1
58 76 1
58 111 1
58 99 1
58 64 1
58 104 1
58 112 1
58 117 1
58 88 1
58 80 1
58 71 1
58 92 1
58 120 1
58 62 1
58 86 1
58 105 1
58 100 1
58 70 1
58 98 1
58 72 1
58 103 1
58 89 1
58 114 1
58 101 1
58 63 1
58 113 1
58 67 1
58 97 1
58 107 1
58 65 1
59 68 1
59 91 1
59 93 1
59 60 1
59 82 1
59 73 1
59 83 1
59 104 1
59 63 1
59 65 1
59 92 1
59 84 1
59 87 1
59 70 1
59 103 1
59 78 1
59 115 1
59 118 1
59 79 1
59 95 1
59 106 1
59 89 1
59 75 1
59 69 1
59 120 1
59 113 1
59 101 1
59 111 1
59 76 1
59 100 1
59 86 1
59 72 1
60 114 1
60 80 1
60 119 1
60 83 1
60 91 1
60 66 1
60 111 1
60 98 1
60 75 1
60 72 1
60 99 1
60 70 1
60 100 1
60 95 1
60 88 1
60 102 1
60 93 1
60 94 1
60 67 1
60 69 1
60 113 1
60 89 1
60 63 1
60 108 1
60 116 1
60 86 1
60 84 1
60 68 1
60 118 1
60 109 1
60 105 1
60 76 1
60 92 1
61 119 1
61 110 1
61 84 1
61 102 1
61 97 1
61 65 1
61 113 1
61 63 1
61 115 1
61 81 1
61 96 1
61 100 1
61 98 1
61 120 1
61 69 1
61 101 1
61 70 1
61 71 1
61 93 1
61 72 1
61 67 1
61 77 1
61 107 1
61 78 1
61 112 1
61 66 1
61 116 1
61 111 1
61 74 1
61 94 1
61 108 1
61 80 1
62 107 1
62 88 1
62 114 1
62 81 1
62 115 1
62 78 1
62 92 1
62 94 1
62 112 1
62 118 1
62 76 1
62 86 1
62 89 1
62 79 1
62 70 1
62 84 1
62 104 1
62 97 1
62 119 1
62 109 1
62 74 1
62 113 1
62 117 1
62 69 1
62 106 1
62 73 1
62 102 1
62 108 1
62 105 1
62 66 1
62 101 1
62 63 1
62 99 1
62 93 1
62 71 1
62 67 1
63 81 1
63 88 1
63 82 1
63 74 1
63 118 1
63 104 1
63 117 1
63 114 1
63 84 1
63 80 1
63 107 1
63 86 1
63 91 1
63 119 1
63 85 1
63 71 1
63 101 1
63 120 1
63 116 1
63 75 1
63 92 1
63 83 1
63 103 1
63 72 1
63 94 1
63 69 1
63 115 1
63 65 1
63 111 1
63 66 1
63 93 1
63 113 1
63 102 1
64 86 1
64 89 1
64 117 1
64 91 1
64 106 1
64 98 1
64 116 1
64 103 1
64 80 1
64 82 1
64 83 1
64 120 1
64 94 1
64 97 1
64 72 1
64 77 1
64 67 1
64 111 1
64 119 1
64 112 1
64 95 1
64 79 1
64 114 1
64 84 1
65 80 1
65 69 1
65 72 1
65 100 1
65 108 1
65 73 1
65 112 1
65 88 1
65 78 1
65 117 1
65 74 1
65 107 1
65 111 1
65 81 1
65 114 1
65 98 1
65 113 1
65 97 1
65 85 1
65 120 1
65 95 1
65 94 1
65 93 1
65 75 1
65 67 1
65 115 1
65 118 1
65 96 1
65 87 1
66 97 1
66 86 1
66 113 1
66 84 1
66 114 1
66 116 1
66 108 1
66 77 1
66 83 1
66 80 1
66 82 1
66 75 1
66 115 1
66 95 1
66 68 1
66 81 1
66 105 1
66 117 1
66 67 1
66 103 1
66 99 1
66 102 1
66 69 1
66 107 1
66 71 1
66 100 1
66 111 1
66 73 1
67 81 1
67 101 1
67 85 1
67 76 1
67 98 1
67 97 1
67 113 1
67 71 1
67 88 1
67 72 1
67 111 1
67 109 1
67 92 1
67 100 1
67 117 1
67 120 1
67 69 1
67 77 1
67 119 1
67 73 1
67 87 1
68 90 1
68 117 1
68 112 1
68 89 1
68 92 1
68 91 1
68 99 1
68 96 1
68 105 1
68 87 1
68 82 1
68 118 1
68 115 1
68 85 1
68 109 1
68 100 1
68 71 1
68 106 1
68 110 1
68 83 1
68 108 1
68 80 1
68 70 1
68 111 1
68 76 1
68 77 1
68 79 1
69 113 1
69 87 1
69 73 1
69 109 1
69 91 1
69 93 1
69 117 1
69 119 1
69 75 1
69 97 1
69 104 1
69 116 1
69 70 1
69 92 1
69 90 1
69 79 1
69 101 1
69 71 1
69 94 1
69 84 1
69 103 1
69 77 1
69 81 1
69 114 1
69 82 1
69 118 1
69 111 1
69 80 1
69 110 1
70 101 1
70 73 1
70 100 1
70 90 1
70 76 1
70 95 1
70 81 1
70 89 1
70 98 1
70 104 1
70 103 1
70 85 1
70 91 1
70 108 1
70 84 1
71 107 1
71 87 1
71 120 1
71 115 1
71 92 1
71 94 1
71 73 1
71 111 1
71 96 1
71 102 1
71 113 1
71 108 1
71 88 1
71 118 1
71 100 1
71 116 1
71 117 1
71 97 1
71 109 1
71 84 1
71 103 1
71 86 1
71 76 1
71 110 1
71 78 1
71 104 1
72 100 1
72 101 1
72 120 1
72 104 1
72 115 1
72 87 1
72 92 1
72 117 1
72 105 1
72 94 1
72 77 1
72 119 1
72 89 1
72 88 1
72 80 1
72 99 1
72 76 1
72 83 1
72 95 1
72 73 1
72 108 1
72 112 1
73 87 1
73 88 1
73 86 1
73 113 1
73 91 1
73 77 1
73 95 1
73 111 1
73 104 1
73 114 1
73 90 1
73 97 1
73 79 1
73 103 1
73 76 1
73 115 1
73 93 1
73 89 1
73 99 1
73 110 1
73 116 1
73 96 1
73 75 1
73 107 1
73 101 1
73 83 1
73 92 1
73 81 1
74 112 1
74 85 1
74 105 1
74 120 1
74 100 1
74 108 1
74 96 1
74 101 1
74 110 1
74 77 1
74 103 1
74 109 1
74 79 1
74 106 1
74 116 1
74 83 1
74 88 1
74 93 1
74 81 1
74 118 1
74 78 1
74 89 1
74 90 1
74 111 1
75 76 1
75 120 1
75 95 1
75 103 1
75 81 1
75 97 1
75 98 1
75 104 1
75 108 1
75 115 1
75 88 1
75 96 1
75 89 1
75 106 1
75 102 1
75 82 1
75 101 1
75 86 1
75 92 1
75 85 1
75 113 1
75 105 1
75 93 1
75 119 1
75 109 1
75 90 1
75 99 1
75 100 1
76 106 1
76 91 1
76 79 1
76 82 1
76 99 1
76 86 1
76 92 1
76 90 1
76 116 1
76 87 1
76 115 1
76 81 1
76 120 1
76 102 1
76 105 1
76 108 1
76 111 1
76 84 1
76 77 1
76 114 1
76 83 1
76 101 1
76 95 1
76 100 1
76 112 1
77 115 1
77 102 1
77 87 1
77 89 1
77 103 1
77 94 1
77 88 1
77 98 1
77 81 1
77 120 1
77 107 1
77 111 1
77 109 1
77 119 1
77 106 1
77 114 1
77 80 1
77 113 1
77 116 1
78 83 1
78 104 1
78 107 1
78 89 1
78 98 1
78 120 1
78 97 1
78 94 1
78 108 1
78 118 1
78 88 1
78 85 1
78 99 1
78 81 1
78 84 1
78 115 1
78 82 1
78 87 1
78 79 1
78 100 1
78 105 1
79 108 1
79 92 1
79 113 1
79 90 1
79 97 1
79 104 1
79 98 1
79 106 1
79 111 1
79 120 1
79 85 1
79 117 1
79 105 1
79 118 1
79 100 1
79 112 1
79 110 1
79 87 1
79 86 1
79 102 1
79 114 1
79 107 1
79 109 1
79 99 1
80 81 1
80 120 1
80 92 1
80 94 1
80 90 1
80 102 1
80 113 1
80 105 1
80 119 1
80 82 1
80 93 1
80 84 1
80 111 1
80 99 1
80 96 1
80 115 1
80 97 1
80 88 1
81 85 1
81 108 1
81 92 1
81 99 1
81 112 1
81 113 1
81 86 1
81 100 1
81 98 1
81 87 1
81 89 1
81 107 1
81 102 1
81 117 1
81 94 1
81 82 1
81 104 1
81 103 1
81 97 1
81 115 1
81 93 1
81 101 1
81 96 1
82 94 1
82 95 1
82 108 1
82 92 1
82 105 1
82 119 1
82 86 1
82 87 1
82 109 1
82 93 1
82 84 1
82 96 1
82 89 1
82 110 1
82 117 1
82 100 1
83 94 1
83 97 1
83 117 1
83 106 1
83 113 1
83 98 1
83 118 1
83 87 1
83 115 1
83 96 1
83 91 1
83 120 1
83 108 1
84 112 1
84 89 1
84 115 1
84 108 1
84 120 1
84 99 1
84 107 1
84 110 1
84 105 1
84 113 1
84 111 1
84 92 1
84 114 1
84 116 1
84 98 1
85 112 1
85 107 1
85 104 1
85 106 1
85 97 1
85 109 1
85 108 1
85 120 1
85 119 1
85 86 1
85 99 1
85 114 1
85 89 1
85 117 1
85 95 1
85 115 1
85 91 1
85 88 1
85 92 1
85 96 1
85 90 1
86 120 1
86 115 1
86 111 1
86 112 1
86 87 1
86 100 1
86 104 1
86 92 1
86 99 1
86 94 1
86 89 1
86 114 1
86 109 1
86 107 1
86 103 1
86 105 1
86 102 1
86 113 1
87 100 1
87 89 1
87 116 1
87 119 1
87 110 1
87 92 1
87 96 1
87 99 1
87 95 1
87 101 1
87 94 1
87 113 1
88 114 1
88 103 1
88 109 1
88 93 1
88 115 1
88 100 1
88 108 1
88 89 1
88 119 1
88 111 1
88 117 1
88 107 1
88 97 1
88 105 1
88 120 1
88 113 1
88 116 1
89 94 1
89 100 1
89 108 1
89 92 1
89 106 1
89 116 1
89 93 1
89 102 1
89 113 1
89 91 1
89 101 1
89 115 1
89 109 1
89 110 1
89 103 1
89 117 1
89 90 1
89 112 1
89 96 1
89 114 1
89 104 1
90 103 1
90 99 1
90 116 1
90 101 1
90 117 1
90 114 1
90 98 1
90 111 1
90 118 1
90 97 1
90 107 1
90 104 1
90 106 1
91 94 1
91 97 1
91 101 1
91 99 1
91 110 1
91 105 1
91 108 1
91 95 1
91 111 1
91 92 1
91 93 1
91 118 1
91 119 1
91 115 1
92 106 1
92 110 1
92 114 1
92 107 1
92 118 1
92 119 1
92 113 1
92 104 1
92 97 1
92 93 1
92 103 1
92 116 1
93 103 1
93 100 1
93 105 1
93 96 1
93 107 1
93 94 1
93 112 1
93 104 1
93 102 1
93 99 1
93 115 1
93 108 1
93 117 1
93 118 1
93 119 1
93 116 1
93 95 1
94 107 1
94 120 1
94 99 1
94 100 1
94 111 1
94 113 1
94 118 1
94 115 1
94 106 1
95 112 1
95 108 1
95 113 1
95 115 1
95 111 1
95 99 1
95 120 1
95 96 1
95 100 1
95 110 1
95 116 1
96 106 1
96 120 1
96 97 1
96 117 1
96 105 1
96 101 1
96 116 1
96 113 1
96 114 1
96 99 1
96 103 1
96 107 1
96 109 1
96 104 1
96 102 1
96 98 1
97 105 1
97 107 1
97 116 1
97 112 1
97 115 1
97 119 1
97 120 1
97 100 1
97 110 1
98 116 1
98 106 1
98 107 1
98 99 1
98 112 1
98 117 1
98 100 1
98 101 1
98 110 1
98 103 1
98 113 1
98 118 1
99 108 1
99 112 1
99 111 1
99 103 1
99 109 1
99 114 1
99 116 1
99 115 1
99 110 1
99 113 1
99 117 1
99 119 1
100 106 1
100 102 1
100 104 1
100 112 1
100 119 1
100 120 1
100 116 1
100 101 1
100 105 1
100 113 1
100 118 1
101 117 1
101 119 1
101 104 1
101 114 1
101 102 1
101 112 1
101 120 1
101 106 1
101 105 1
101 116 1
102 105 1
102 104 1
102 119 1
102 114 1
102 116 1
102 109 1
103 113 1
103 104 1
103 114 1
103 108 1
103 110 1
103 109 1
103 111 1
103 118 1
104 110 1
104 112 1
104 111 1
104 109 1
104 114 1
105 107 1
105 116 1
105 115 1
105 120 1
105 117 1
105 118 1
106 120 1
106 107 1
106 116 1
106 119 1
106 113 1
106 111 1
106 114 1
107 108 1
107 115 1
107 114 1
107 119 1
107 116 1
107 120 1
108 118 1
108 117 1
108 109 1
108 111 1
108 110 1
108 115 1
108 119 1
109 112 1
109 115 1
109 110 1
109 119 1
109 114 1
109 120 1
110 117 1
110 113 1
110 118 1
110 115 1
110 112 1
110 114 1
111 118 1
111 114 1
111 115 1
111 112 1
112 120 1
112 118 1
112 114 1
113 114 1
113 117 1
113 118 1
114 117 1
114 115 1
114 116 1
115 118 1
115 116 1
116 120 1
116 119 1
117 118 1
117 119 1
118 119 1
118 120 1
119 120 1
